&BANDS
  prefix = 'scf'
  outdir = './data'
  filband = 'bccLi.bands.dat'
/
