&BANDS
  prefix = 'scf'
  outdir = './data'
  filband = 'bccNa.bands.dat'
/
