&projwfc
  outdir = './data/'
  prefix = 'FeO'
  DeltaE = 0.01
/
