&bands
    outdir = './data/' ,
    prefix='scf' ,
    filband='GaAs.band' ,
    lsym=.true.
 /
