&inputpp
    prefix  = 'SrTiO3'
    outdir = './out'
    filplot = 'SrTiO3_valence'
    plot_num= 0
/
&plot
nfile = 1
iflag = 3
output_format = 6
fileout = 'STO_valence.cube'
/

